c description: Graph 4-Colorability of graph: 
c generator: CNFgen (0.9.0)
c copyright: (C) 2012-2020 Massimo Lauria <massimo.lauria@uniroma1.it>
c url: https://massimolauria.net/cnfgen
c
p cnf 80 300
1 2 3 4 0
-1 -2 0
-1 -3 0
-1 -4 0
-2 -3 0
-2 -4 0
-3 -4 0
5 6 7 8 0
-5 -6 0
-5 -7 0
-5 -8 0
-6 -7 0
-6 -8 0
-7 -8 0
9 10 11 12 0
-9 -10 0
-9 -11 0
-9 -12 0
-10 -11 0
-10 -12 0
-11 -12 0
13 14 15 16 0
-13 -14 0
-13 -15 0
-13 -16 0
-14 -15 0
-14 -16 0
-15 -16 0
17 18 19 20 0
-17 -18 0
-17 -19 0
-17 -20 0
-18 -19 0
-18 -20 0
-19 -20 0
21 22 23 24 0
-21 -22 0
-21 -23 0
-21 -24 0
-22 -23 0
-22 -24 0
-23 -24 0
25 26 27 28 0
-25 -26 0
-25 -27 0
-25 -28 0
-26 -27 0
-26 -28 0
-27 -28 0
29 30 31 32 0
-29 -30 0
-29 -31 0
-29 -32 0
-30 -31 0
-30 -32 0
-31 -32 0
33 34 35 36 0
-33 -34 0
-33 -35 0
-33 -36 0
-34 -35 0
-34 -36 0
-35 -36 0
37 38 39 40 0
-37 -38 0
-37 -39 0
-37 -40 0
-38 -39 0
-38 -40 0
-39 -40 0
41 42 43 44 0
-41 -42 0
-41 -43 0
-41 -44 0
-42 -43 0
-42 -44 0
-43 -44 0
45 46 47 48 0
-45 -46 0
-45 -47 0
-45 -48 0
-46 -47 0
-46 -48 0
-47 -48 0
49 50 51 52 0
-49 -50 0
-49 -51 0
-49 -52 0
-50 -51 0
-50 -52 0
-51 -52 0
53 54 55 56 0
-53 -54 0
-53 -55 0
-53 -56 0
-54 -55 0
-54 -56 0
-55 -56 0
57 58 59 60 0
-57 -58 0
-57 -59 0
-57 -60 0
-58 -59 0
-58 -60 0
-59 -60 0
61 62 63 64 0
-61 -62 0
-61 -63 0
-61 -64 0
-62 -63 0
-62 -64 0
-63 -64 0
65 66 67 68 0
-65 -66 0
-65 -67 0
-65 -68 0
-66 -67 0
-66 -68 0
-67 -68 0
69 70 71 72 0
-69 -70 0
-69 -71 0
-69 -72 0
-70 -71 0
-70 -72 0
-71 -72 0
73 74 75 76 0
-73 -74 0
-73 -75 0
-73 -76 0
-74 -75 0
-74 -76 0
-75 -76 0
77 78 79 80 0
-77 -78 0
-77 -79 0
-77 -80 0
-78 -79 0
-78 -80 0
-79 -80 0
-1 -9 0
-2 -10 0
-3 -11 0
-4 -12 0
-1 -17 0
-2 -18 0
-3 -19 0
-4 -20 0
-1 -21 0
-2 -22 0
-3 -23 0
-4 -24 0
-1 -37 0
-2 -38 0
-3 -39 0
-4 -40 0
-1 -53 0
-2 -54 0
-3 -55 0
-4 -56 0
-1 -57 0
-2 -58 0
-3 -59 0
-4 -60 0
-1 -65 0
-2 -66 0
-3 -67 0
-4 -68 0
-1 -77 0
-2 -78 0
-3 -79 0
-4 -80 0
-5 -73 0
-6 -74 0
-7 -75 0
-8 -76 0
-9 -13 0
-10 -14 0
-11 -15 0
-12 -16 0
-9 -65 0
-10 -66 0
-11 -67 0
-12 -68 0
-13 -17 0
-14 -18 0
-15 -19 0
-16 -20 0
-13 -37 0
-14 -38 0
-15 -39 0
-16 -40 0
-13 -45 0
-14 -46 0
-15 -47 0
-16 -48 0
-13 -77 0
-14 -78 0
-15 -79 0
-16 -80 0
-17 -37 0
-18 -38 0
-19 -39 0
-20 -40 0
-17 -57 0
-18 -58 0
-19 -59 0
-20 -60 0
-21 -53 0
-22 -54 0
-23 -55 0
-24 -56 0
-25 -29 0
-26 -30 0
-27 -31 0
-28 -32 0
-25 -49 0
-26 -50 0
-27 -51 0
-28 -52 0
-25 -53 0
-26 -54 0
-27 -55 0
-28 -56 0
-29 -37 0
-30 -38 0
-31 -39 0
-32 -40 0
-29 -45 0
-30 -46 0
-31 -47 0
-32 -48 0
-29 -73 0
-30 -74 0
-31 -75 0
-32 -76 0
-33 -37 0
-34 -38 0
-35 -39 0
-36 -40 0
-33 -77 0
-34 -78 0
-35 -79 0
-36 -80 0
-37 -57 0
-38 -58 0
-39 -59 0
-40 -60 0
-41 -45 0
-42 -46 0
-43 -47 0
-44 -48 0
-41 -61 0
-42 -62 0
-43 -63 0
-44 -64 0
-41 -65 0
-42 -66 0
-43 -67 0
-44 -68 0
-41 -77 0
-42 -78 0
-43 -79 0
-44 -80 0
-45 -53 0
-46 -54 0
-47 -55 0
-48 -56 0
-49 -61 0
-50 -62 0
-51 -63 0
-52 -64 0
-49 -65 0
-50 -66 0
-51 -67 0
-52 -68 0
-53 -77 0
-54 -78 0
-55 -79 0
-56 -80 0
-57 -61 0
-58 -62 0
-59 -63 0
-60 -64 0
-61 -73 0
-62 -74 0
-63 -75 0
-64 -76 0
-61 -77 0
-62 -78 0
-63 -79 0
-64 -80 0
-65 -77 0
-66 -78 0
-67 -79 0
-68 -80 0
-73 -77 0
-74 -78 0
-75 -79 0
-76 -80 0